75 73 8 46 32 66 12 93 2 25 20 88 98 36 29 41 48 63 1 54 97 22 16 26 72 11 28 60 27 74 96 34 92 81 21 39 24 5 76 6 95 47 69 83 68 31 49 23 14 51 91 82 7 56 65 0 38 19 4 57 85 10 18 13 52 86 84 15 64 55 33 99 17 59 71 77 9 30 61 50 70 79 87 43 37 58 78 35 89 67 40 94 3 90 42 44 62 80 45 53
